# Objective value = 3.0063111965161966e+02
x[0] 1
x[1] 0
x[2] 0
x[3] 1
x[4] 1
x[5] 0
x[6] 0
x[7] 0
x[8] 0
x[9] 0
x[10] 0
x[11] 1
x[12] 1
x[13] 0
x[14] 0
x[15] 0
x[16] 0
x[17] 0
x[18] 0
x[19] 0
x[20] 0
x[21] 1
x[22] 1
x[23] 0
x[24] 1
x[25] 1
x[26] 1
x[27] 0
x[28] 1
x[29] 0
x[30] 0
x[31] 0
x[32] 0
x[33] 1
x[34] 0
x[35] 1
x[36] 1
x[37] 0
x[38] 1
x[39] 0
x[40] 0
x[41] 1
x[42] 0
x[43] 1
x[44] 0
x[45] 0
x[46] 0
x[47] 1
x[48] 1
x[49] 0
x[50] 1
x[51] 0
x[52] 0
x[53] 1
x[54] 1
x[55] 1
x[56] 1
x[57] 1
x[58] 1
x[59] 0
x[60] 0
x[61] 1
x[62] 0
x[63] 1
x[64] 0
x[65] 0
x[66] 0
x[67] 0
x[68] 1
x[69] 0
x[70] 0
x[71] 0
x[72] 0
x[73] 1
x[74] 1
x[75] 0
x[76] 1
x[77] 1
x[78] 1
x[79] 0
x[80] 1
x[81] 0
x[82] 1
x[83] 1
x[84] 1
x[85] 0
x[86] 0
x[87] 1
x[88] 0
x[89] 0
x[90] 1
x[91] 0
x[92] 1
x[93] 0
x[94] 1
x[95] 1
x[96] 0
x[97] 0
x[98] 0
x[99] 0
x[100] 1
x[101] 1
x[102] 1
x[103] 1
x[104] 1
x[105] 1
x[106] 1
x[107] 1
x[108] 1
x[109] 1
x[110] 1
x[111] 0
x[112] 1
x[113] 0
x[114] 0
x[115] 0
x[116] 1
x[117] 1
x[118] 1
x[119] 1
x[120] 0
x[121] 0
x[122] 0
x[123] 1
x[124] 1
x[125] 0
x[126] 0
x[127] 0
x[128] 1
x[129] 0
x[130] 1
x[131] 1
x[132] 0
x[133] 1
x[134] 1
x[135] 0
x[136] 1
x[137] 0
x[138] 1
x[139] 0
x[140] 1
x[141] 0
x[142] 1
x[143] 1
x[144] 0
x[145] 1
x[146] 1
x[147] 0
x[148] 0
x[149] 1
x[150] 1
x[151] 1
x[152] 0
x[153] 0
x[154] 0
x[155] 0
x[156] 0
x[157] 1
x[158] 1
x[159] 1
x[160] 1
x[161] 0
x[162] 1
x[163] 1
x[164] 0
x[165] 1
x[166] 0
x[167] 1
x[168] 1
x[169] 0
x[170] 1
x[171] 1
x[172] 1
x[173] 1
x[174] 0
x[175] 0
x[176] 1
x[177] 1
x[178] 0
x[179] 0
x[180] 1
x[181] 1
x[182] 0
x[183] 0
x[184] 1
x[185] 0
x[186] 0
x[187] 0
x[188] 0
x[189] 1
x[190] 1
x[191] 1
x[192] 1
x[193] 0
x[194] 0
x[195] 1
x[196] 1
x[197] 0
x[198] 0
x[199] 0
x[200] 0
x[201] 0
x[202] 1
x[203] 0
x[204] 0
x[205] 0
x[206] 1
x[207] 0
x[208] 1
x[209] 0
x[210] 0
x[211] 1
x[212] 0
x[213] 1
x[214] 1
x[215] 0
x[216] 1
x[217] 1
x[218] 1
x[219] 1
x[220] 0
x[221] 0
x[222] 0
x[223] 1
x[224] 1
x[225] 1
x[226] 1
x[227] 0
x[228] 0
x[229] 1
x[230] 0
x[231] 0
x[232] 1
x[233] 0
x[234] 1
x[235] 1
x[236] 0
x[237] 0
x[238] 1
x[239] 1
x[240] 1
x[241] 1
x[242] 1
x[243] 1
x[244] 0
x[245] 1
x[246] 0
x[247] 1
x[248] 1
x[249] 1
x[250] 0
x[251] 1
x[252] 1
x[253] 1
x[254] 0
x[255] 0
x[256] 0
x[257] 0
x[258] 0
x[259] 1
x[260] 0
x[261] 0
x[262] 1
x[263] 0
x[264] 0
x[265] 1
x[266] 1
x[267] 1
x[268] 0
x[269] 1
x[270] 0
x[271] 0
x[272] 1
x[273] 1
x[274] 1
x[275] 1
x[276] 1
x[277] 0
x[278] 0
x[279] 0
x[280] 1
x[281] 0
x[282] 0
x[283] 1
x[284] 0
x[285] 0
x[286] 1
x[287] 0
x[288] 0
x[289] 1
x[290] 0
x[291] 1
x[292] 1
x[293] 1
x[294] 1
x[295] 1
x[296] 1
x[297] 1
x[298] 0
x[299] 1
x[300] 0
x[301] 0
x[302] 1
x[303] 1
x[304] 1
x[305] 1
x[306] 0
x[307] 0
x[308] 1
x[309] 1
x[310] 0
x[311] 1
x[312] 0
x[313] 1
x[314] 0
x[315] 0
x[316] 1
x[317] 0
x[318] 1
x[319] 0
x[320] 0
x[321] 1
x[322] 0
x[323] 1
x[324] 1
x[325] 0
x[326] 1
x[327] 1
x[328] 0
x[329] 0
x[330] 1
x[331] 1
x[332] 1
x[333] 0
x[334] 1
x[335] 1
x[336] 1
x[337] 1
x[338] 0
x[339] 0
x[340] 0
x[341] 0
x[342] 1
x[343] 1
x[344] 1
x[345] 1
x[346] 1
x[347] 0
x[348] 1
x[349] 0
x[350] 0
x[351] 0
x[352] 0
x[353] 0
x[354] 1
x[355] 0
x[356] 1
x[357] 1
x[358] 1
x[359] 0
x[360] 0
x[361] 0
x[362] 1
x[363] 1
x[364] 0
x[365] 0
x[366] 0
x[367] 0
x[368] 0
x[369] 0
x[370] 0
x[371] 1
x[372] 1
x[373] 0
x[374] 1
x[375] 0
x[376] 1
x[377] 0
x[378] 1
x[379] 0
x[380] 0
x[381] 0
x[382] 0
x[383] 0
x[384] 1
x[385] 0
x[386] 1
x[387] 0
x[388] 1
x[389] 1
x[390] 1
x[391] 1
x[392] 0
x[393] 0
x[394] 0
x[395] 1
x[396] 0
x[397] 0
x[398] 0
x[399] 0
x[400] 0
x[401] 0
x[402] 0
x[403] 1
x[404] 1
x[405] 1
x[406] 1
x[407] 0
x[408] 0
x[409] 1
x[410] 0
x[411] 0
x[412] 0
x[413] 1
x[414] 0
x[415] 0
x[416] 0
x[417] 1
x[418] 0
x[419] 1
x[420] 0
x[421] 1
x[422] 0
x[423] 0
x[424] 1
x[425] 1
x[426] 0
x[427] 0
x[428] 1
x[429] 0
x[430] 1
x[431] 1
x[432] 0
x[433] 1
x[434] 1
x[435] 1
x[436] 1
x[437] 1
x[438] 1
x[439] 1
x[440] 1
x[441] 1
x[442] 1
x[443] 1
x[444] 1
x[445] 1
x[446] 0
x[447] 1
x[448] 0
x[449] 0
x[450] 1
x[451] 1
x[452] 0
x[453] 0
x[454] 0
x[455] 1
x[456] 1
x[457] 0
x[458] 1
x[459] 1
x[460] 0
x[461] 0
x[462] 0
x[463] 0
x[464] 0
x[465] 0
x[466] 1
x[467] 1
x[468] 1
x[469] 1
x[470] 1
x[471] 1
x[472] 1
x[473] 1
x[474] 0
x[475] 1
x[476] 0
x[477] 1
x[478] 1
x[479] 0
x[480] 1
x[481] 1
x[482] 0
x[483] 1
x[484] 0
x[485] 1
x[486] 0
x[487] 0
x[488] 0
x[489] 1
x[490] 1
x[491] 1
x[492] 0
x[493] 1
x[494] 0
x[495] 0
x[496] 1
x[497] 1
x[498] 0
x[499] 1
x[500] 0
x[501] 1
x[502] 0
x[503] 0
x[504] 0
x[505] 0
x[506] 0
x[507] 0
x[508] 1
x[509] 0
x[510] 0
x[511] 1
x[512] 0
x[513] 0
x[514] 0
x[515] 0
x[516] 0
x[517] 1
x[518] 0
x[519] 0
x[520] 0
x[521] 0
x[522] 1
x[523] 0
x[524] 0
x[525] 1
x[526] 1
x[527] 0
x[528] 0
x[529] 1
x[530] 0
x[531] 1
x[532] 1
x[533] 1
x[534] 0
x[535] 1
x[536] 0
x[537] 1
x[538] 1
x[539] 0
x[540] 1
x[541] 1
x[542] 0
x[543] 1
x[544] 0
x[545] 1
x[546] 1
x[547] 1
x[548] 1
x[549] 0
x[550] 0
x[551] 0
x[552] 1
x[553] 0
x[554] 0
x[555] 1
x[556] 0
x[557] 1
x[558] 1
x[559] 0
x[560] 1
x[561] 0
x[562] 0
x[563] 0
x[564] 0
x[565] 1
x[566] 0
x[567] 1
x[568] 1
x[569] 1
x[570] 0
x[571] 0
x[572] 1
x[573] 1
x[574] 1
x[575] 0
x[576] 0
x[577] 1
x[578] 0
x[579] 0
x[580] 0
x[581] 0
x[582] 0
x[583] 0
x[584] 1
x[585] 0
x[586] 1
x[587] 0
x[588] 1
x[589] 1
x[590] 0
x[591] 1
x[592] 0
x[593] 0
x[594] 0
x[595] 0
x[596] 0
x[597] 1
x[598] 1
x[599] 1
x[600] 0
x[601] 1
x[602] 0
x[603] 0
x[604] 0
x[605] 1
x[606] 0
x[607] 1
x[608] 0
x[609] 1
x[610] 0
x[611] 1
x[612] 0
x[613] 1
x[614] 1
x[615] 0
x[616] 0
x[617] 0
x[618] 0
x[619] 0
x[620] 1
x[621] 0
x[622] 0
x[623] 0
x[624] 0
x[625] 1
x[626] 0
x[627] 0
x[628] 0
x[629] 1
x[630] 1
x[631] 1
x[632] 1
x[633] 0
x[634] 0
x[635] 0
x[636] 0
x[637] 0
x[638] 0
x[639] 0
x[640] 0
x[641] 0
x[642] 1
x[643] 0
x[644] 0
x[645] 1
x[646] 1
x[647] 0
x[648] 1
x[649] 1
x[650] 1
x[651] 1
x[652] 1
x[653] 1
x[654] 1
x[655] 0
x[656] 0
x[657] 0
x[658] 1
x[659] 0
x[660] 0
x[661] 0
x[662] 1
x[663] 0
x[664] 0
x[665] 0
x[666] 0
x[667] 0
x[668] 0
x[669] 0
x[670] 0
x[671] 0
x[672] 1
x[673] 1
x[674] 1
x[675] 1
x[676] 0
x[677] 0
x[678] 1
x[679] 1
x[680] 1
x[681] 1
x[682] 1
x[683] 0
x[684] 1
x[685] 1
x[686] 0
x[687] 0
x[688] 1
x[689] 1
x[690] 1
x[691] 1
x[692] 0
x[693] 1
x[694] 1
x[695] 1
x[696] 0
x[697] 0
x[698] 0
x[699] 0
x[700] 1
x[701] 1
x[702] 1
x[703] 0
x[704] 1
x[705] 1
x[706] 0
x[707] 0
x[708] 0
x[709] 0
x[710] 1
x[711] 1
x[712] 1
x[713] 0
x[714] 1
x[715] 0
x[716] 1
x[717] 0
x[718] 0
x[719] 1
x[720] 0
x[721] 0
x[722] 0
x[723] 0
x[724] 0
x[725] 0
x[726] 1
x[727] 1
x[728] 1
x[729] 0
x[730] 0
x[731] 0
x[732] 0
x[733] 0
x[734] 0
x[735] 0
x[736] 1
x[737] 0
x[738] 1
x[739] 0
x[740] 0
x[741] 1
x[742] 1
x[743] 1
x[744] 1
x[745] 1
x[746] 0
x[747] 1
x[748] 1
x[749] 0
x[750] 0
x[751] 1
x[752] 0
x[753] 0
x[754] 0
x[755] 0
x[756] 0
x[757] 0
x[758] 0
x[759] 0
x[760] 0
x[761] 0
x[762] 1
x[763] 0
x[764] 1
x[765] 0
x[766] 1
x[767] 1
x[768] 1
x[769] 1
x[770] 1
x[771] 0
x[772] 1
x[773] 1
x[774] 1
x[775] 1
x[776] 1
x[777] 0
x[778] 1
x[779] 0
x[780] 1
x[781] 0
x[782] 0
x[783] 0
x[784] 0
x[785] 1
x[786] 1
x[787] 0
x[788] 1
x[789] 1
x[790] 0
x[791] 0
x[792] 1
x[793] 1
x[794] 1
x[795] 1
x[796] 1
x[797] 1
x[798] 1
x[799] 1
x[800] 0
x[801] 0
x[802] 0
x[803] 0
x[804] 1
x[805] 1
x[806] 1
x[807] 1
x[808] 0
x[809] 0
x[810] 1
x[811] 1
x[812] 0
x[813] 1
x[814] 0
x[815] 1
x[816] 0
x[817] 1
x[818] 0
x[819] 1
x[820] 0
x[821] 1
x[822] 0
x[823] 1
x[824] 1
x[825] 1
x[826] 1
x[827] 0
x[828] 1
x[829] 0
x[830] 0
x[831] 1
x[832] 0
x[833] 0
x[834] 1
x[835] 1
x[836] 0
x[837] 1
x[838] 1
x[839] 0
x[840] 0
x[841] 1
x[842] 0
x[843] 0
x[844] 0
x[845] 1
x[846] 0
x[847] 1
x[848] 1
x[849] 0
x[850] 1
x[851] 1
x[852] 0
x[853] 0
x[854] 0
x[855] 0
x[856] 0
x[857] 1
x[858] 0
x[859] 1
x[860] 0
x[861] 0
x[862] 1
x[863] 1
x[864] 1
x[865] 0
x[866] 0
x[867] 0
x[868] 1
x[869] 1
x[870] 1
x[871] 1
x[872] 0
x[873] 1
x[874] 0
x[875] 0
x[876] 0
x[877] 1
x[878] 0
x[879] 1
x[880] 1
x[881] 0
x[882] 0
x[883] 0
x[884] 0
x[885] 0
x[886] 0
x[887] 0
x[888] 1
x[889] 1
x[890] 0
x[891] 0
x[892] 0
x[893] 0
x[894] 1
x[895] 1
x[896] 1
x[897] 0
x[898] 1
x[899] 0
x[900] 0
x[901] 0
x[902] 0
x[903] 0
x[904] 1
x[905] 0
x[906] 1
x[907] 1
x[908] 0
x[909] 0
x[910] 1
x[911] 0
x[912] 1
x[913] 1
x[914] 0
x[915] 1
x[916] 1
x[917] 0
x[918] 1
x[919] 0
x[920] 0
x[921] 0
x[922] 1
x[923] 0
x[924] 0
x[925] 1
x[926] 0
x[927] 0
x[928] 0
x[929] 1
x[930] 0
x[931] 1
x[932] 1
x[933] 0
x[934] 0
x[935] 0
x[936] 0
x[937] 0
x[938] 0
x[939] 1
x[940] 1
x[941] 0
x[942] 1
x[943] 0
x[944] 0
x[945] 0
x[946] 1
x[947] 0
x[948] 1
x[949] 1
x[950] 1
x[951] 0
x[952] 0
x[953] 0
x[954] 0
x[955] 0
x[956] 0
x[957] 0
x[958] 1
x[959] 1
x[960] 1
x[961] 0
x[962] 1
x[963] 0
x[964] 1
x[965] 0
x[966] 0
x[967] 1
x[968] 0
x[969] 0
x[970] 0
x[971] 1
x[972] 1
x[973] 1
x[974] 1
x[975] 0
x[976] 0
x[977] 0
x[978] 0
x[979] 1
x[980] 1
x[981] 0
x[982] 1
x[983] 0
x[984] 0
x[985] 1
x[986] 0
x[987] 0
x[988] 0
x[989] 1
x[990] 1
x[991] 1
x[992] 0
x[993] 0
x[994] 0
x[995] 1
x[996] 0
x[997] 1
x[998] 1
x[999] 1
